Solver command line: ['C:\\gurobi1102\\win64\\bin\\gurobi.bat']

Set parameter Username
Academic license - for non-commercial use only - expires 2025-06-25
Read LP format model from file C:\Users\danin\AppData\Local\Temp\tmpl_0h1v4n.pyomo.lp
Reading time = 0.42 seconds
x1: 65100 rows, 65000 columns, 437500 nonzeros
Set parameter Cuts to value 1
Set parameter Presolve to value 1
Set parameter TimeLimit to value 1800
Set parameter MIPGap to value 0.01
Set parameter Threads to value 6
Gurobi Optimizer version 11.0.2 build v11.0.2rc0 (win64 - Windows 11.0 (22631.2))

CPU model: AMD Ryzen 5 4600H with Radeon Graphics, instruction set [SSE2|AVX|AVX2]
Thread count: 6 physical cores, 12 logical processors, using up to 6 threads

Optimize a model with 65100 rows, 65000 columns and 437500 nonzeros
Model fingerprint: 0xd6488b37
Variable types: 1250 continuous, 63750 integer (63750 binary)
Coefficient statistics:
  Matrix range     [1e+00, 1e+03]
  Objective range  [1e+00, 6e+01]
  Bounds range     [1e+00, 1e+00]
  RHS range        [1e+00, 1e+03]
Presolve removed 57675 rows and 33500 columns
Presolve time: 0.37s
Presolved: 7425 rows, 31500 columns, 124675 nonzeros
Variable types: 1075 continuous, 30425 integer (30425 binary)
Deterministic concurrent LP optimizer: primal and dual simplex
Showing primal log only...

Concurrent spin time: 0.00s

Solved with dual simplex

Use crossover to convert LP symmetric solution to basic solution...

Root relaxation: objective 3.620482e+02, 507 iterations, 0.10 seconds (0.06 work units)

    Nodes    |    Current Node    |     Objective Bounds      |     Work
 Expl Unexpl |  Obj  Depth IntInf | Incumbent    BestBd   Gap | It/Node Time

     0     0  362.04815    0   24          -  362.04815      -     -    0s
H    0     0                     896.3291647  362.04815  59.6%     -    0s
H    0     0                     558.8498209  362.04815  35.2%     -    0s
     0     0  362.04815    0   24  558.84982  362.04815  35.2%     -    1s
H    0     0                     363.2468004  362.04815  0.33%     -    1s

Cutting planes:
  Implied bound: 9

Explored 1 nodes (1702 simplex iterations) in 1.54 seconds (1.14 work units)
Thread count was 6 (of 12 available processors)

Solution count 3: 363.247 558.85 896.329 

Optimal solution found (tolerance 1.00e-02)
Best objective 3.632468004116e+02, best bound 3.620481510308e+02, gap 0.3300%

